543 5
10 10 10 10 10 

0 0 0 0 0 0 5 2 14 26 38 50 
0 0 0 0 0 0 2 3 10 
2 0 5 0 0 0 2 12 4 
4 0 10 0 0 0 1 5 
7 0 8 0 0 0 2 9 6 
10 0 10 0 0 0 1 7 
9 0 8 0 0 0 1 8 
10 0 7 0 0 0 1 11 
3 0 5 0 0 0 2 11 326 
1 0 4 0 0 0 1 11 
10 0 8 0 0 0 1 13 
3 0 10 0 0 0 1 13 
0 0 0 0 0 0 1 62 
0 0 0 0 0 0 3 15 21 517 
4 1 0 0 0 0 1 16 
3 9 0 0 0 0 3 24 23 17 
3 10 0 0 0 0 1 18 
9 9 0 0 0 0 1 19 
9 5 0 0 0 0 1 20 
1 10 0 0 0 0 1 22 
5 10 0 0 0 0 1 22 
10 7 0 0 0 0 1 25 
10 5 0 0 0 0 1 25 
2 9 0 0 0 0 1 25 
0 0 0 0 0 0 1 62 
0 0 0 0 0 0 3 27 28 30 
5 0 0 0 0 1 1 29 
3 0 0 0 0 9 2 36 32 
9 0 0 0 0 7 1 31 
2 0 0 0 0 7 2 36 33 
4 0 0 0 0 8 1 32 
6 0 0 0 0 8 1 33 
7 0 0 0 0 8 1 34 
3 0 0 0 0 7 1 35 
9 0 0 0 0 10 2 37 505 
6 0 0 0 0 10 1 37 
0 0 0 0 0 0 1 62 
0 0 0 0 0 0 2 39 42 
2 0 0 0 4 0 3 46 40 500 
10 0 0 0 6 0 1 41 
5 0 0 0 10 0 1 43 
10 0 0 0 6 0 1 43 
9 0 0 0 5 0 2 48 44 
10 0 0 0 7 0 1 45 
1 0 0 0 10 0 1 47 
10 0 0 0 10 0 1 47 
2 0 0 0 7 0 1 49 
3 0 0 0 10 0 1 49 
0 0 0 0 0 0 1 62 
0 0 0 0 0 0 2 51 55 
3 0 0 0 0 2 2 54 52 
6 0 0 0 0 10 1 53 
4 0 0 0 0 5 2 59 56 
5 0 0 0 0 10 2 59 56 
8 0 0 0 0 10 2 59 56 
9 0 0 0 0 7 1 57 
4 0 0 0 0 9 2 58 206 
7 0 0 0 0 10 1 60 
2 0 0 0 0 7 1 60 
9 0 0 0 0 5 1 61 
0 0 0 0 0 0 1 62 
0 0 0 0 0 0 5 63 105 117 159 201 
0 0 0 0 0 0 3 64 102 103 
5 0 2 4 3 4 1 65 
10 0 8 10 7 8 1 66 
2 0 6 7 7 10 1 67 
5 0 7 10 9 6 1 68 
9 0 8 6 6 7 2 101 69 
10 0 7 10 5 8 2 100 70 
4 0 10 10 10 7 1 71 
6 0 8 7 9 6 1 72 
7 0 8 5 8 7 1 73 
6 0 6 10 10 6 1 74 
7 0 10 10 8 9 1 75 
5 0 7 10 10 10 2 99 76 
7 0 6 4 6 8 3 98 97 77 
3 0 8 8 4 8 1 78 
2 0 7 8 5 8 1 79 
1 0 7 10 7 9 1 80 
8 0 8 10 10 7 1 81 
2 0 8 9 10 3 2 96 82 
9 0 6 8 7 10 2 95 83 
7 0 7 10 10 5 2 94 84 
7 0 4 8 10 9 1 85 
4 0 10 7 10 7 1 86 
5 0 10 10 10 8 2 87 143 
9 0 8 5 8 4 1 88 
3 0 8 10 8 8 1 89 
3 0 5 8 4 8 1 90 
6 0 7 4 4 10 1 91 
5 0 10 4 7 8 1 92 
3 0 9 9 6 8 1 93 
8 0 9 6 10 6 1 104 
8 0 4 5 7 8 1 104 
1 0 9 9 10 6 1 104 
10 0 10 5 10 9 1 104 
4 0 2 5 8 6 1 104 
10 0 7 9 10 9 1 104 
9 0 10 9 6 9 1 104 
9 0 4 4 4 7 1 104 
4 0 10 8 4 10 1 104 
8 0 10 3 8 10 1 104 
4 0 10 6 5 4 1 104 
0 0 0 0 0 0 1 543 
0 0 0 0 0 0 1 106 
6 3 0 0 0 0 2 108 107 
6 10 0 0 0 0 1 109 
1 9 0 0 0 0 1 109 
10 8 0 0 0 0 1 110 
8 10 0 0 0 0 2 112 111 
9 4 0 0 0 0 2 114 113 
1 8 0 0 0 0 2 114 113 
10 9 0 0 0 0 2 115 500 
10 6 0 0 0 0 1 115 
4 8 0 0 0 0 1 116 
0 0 0 0 0 0 5 243 275 307 339 351 
0 0 0 0 0 0 3 118 121 123 
9 0 1 3 3 3 1 119 
10 0 10 5 9 10 1 120 
6 0 7 6 10 6 1 122 
6 0 10 6 7 10 1 122 
7 0 7 10 10 7 1 124 
9 0 10 9 8 10 1 124 
9 0 10 8 3 6 1 125 
4 0 4 3 8 10 1 126 
8 0 10 8 8 7 2 129 127 
9 0 10 10 10 5 2 128 539 
5 0 9 8 10 7 1 130 
7 0 7 7 10 7 1 130 
4 0 10 8 4 9 1 131 
9 0 9 10 5 8 1 132 
6 0 9 7 7 8 1 133 
9 0 8 5 4 10 2 136 134 
3 0 9 6 10 7 2 138 135 
9 0 8 5 7 6 1 137 
8 0 3 8 8 4 3 157 144 140 
6 0 10 9 6 6 2 157 139 
3 0 10 9 10 10 2 157 141 
4 0 5 10 6 8 1 140 
10 0 10 10 10 7 1 141 
4 0 8 8 10 6 1 142 
1 0 6 10 7 7 1 143 
2 0 8 4 5 8 3 151 148 145 
7 0 2 8 3 10 3 151 148 145 
7 0 8 7 10 9 1 146 
9 0 9 6 10 8 2 153 147 
10 0 4 8 10 9 1 149 
10 0 3 10 10 9 1 149 
6 0 6 10 6 7 1 150 
4 0 5 8 3 6 1 152 
10 0 8 10 10 5 1 152 
2 0 10 9 4 7 1 154 
8 0 8 5 8 8 1 154 
4 0 9 5 10 7 1 155 
1 0 7 7 7 4 1 156 
8 0 7 8 10 9 1 158 
9 0 6 7 4 10 1 158 
0 0 0 0 0 0 1 543 
0 0 0 0 0 0 2 160 161 
5 3 5 0 3 1 3 164 162 341 
10 10 7 0 7 4 1 162 
4 5 4 0 7 7 1 163 
1 10 7 0 9 9 1 165 
3 4 7 0 10 9 1 165 
8 7 5 0 4 10 1 166 
9 8 7 0 8 8 1 167 
6 4 8 0 10 7 1 168 
8 5 5 0 10 10 2 171 169 
1 4 10 0 7 7 1 170 
1 8 8 0 5 10 1 172 
9 10 8 0 10 6 1 172 
2 8 8 0 10 8 1 173 
6 8 10 0 9 7 1 174 
8 9 8 0 5 8 1 175 
7 10 7 0 9 8 1 176 
3 8 8 0 2 6 3 180 178 177 
8 8 7 0 6 7 2 181 179 
4 10 4 0 10 4 2 182 181 
3 3 8 0 10 10 1 182 
1 5 10 0 5 8 1 181 
7 5 5 0 2 4 1 183 
2 10 10 0 4 10 1 183 
2 9 9 0 10 8 1 184 
3 10 4 0 8 8 2 187 185 
7 9 9 0 10 8 1 186 
8 7 9 0 6 4 1 188 
10 5 7 0 10 9 1 188 
7 4 10 0 7 7 2 190 189 
10 7 10 0 10 6 2 192 191 
7 10 7 0 8 5 1 191 
3 10 10 0 10 4 2 195 193 
5 6 10 0 4 7 2 195 194 
6 10 9 0 7 10 1 194 
4 10 3 0 8 10 1 196 
6 10 9 0 10 10 1 196 
7 7 6 0 9 7 1 197 
1 7 9 0 6 10 1 198 
8 8 7 0 9 10 1 199 
7 9 6 0 6 9 1 200 
0 0 0 0 0 0 1 543 
0 0 0 0 0 0 2 202 204 
1 3 8 0 4 2 1 203 
7 8 8 0 7 5 1 205 
8 7 8 0 6 6 1 206 
9 10 2 0 10 8 1 207 
3 5 6 0 4 4 1 207 
10 8 10 0 9 6 1 208 
5 8 2 0 7 10 1 209 
10 8 4 0 9 9 1 210 
8 6 6 0 10 6 2 213 211 
3 10 6 0 10 10 2 212 456 
1 6 4 0 9 9 1 214 
7 10 10 0 5 9 1 214 
8 10 5 0 7 5 1 215 
8 7 6 0 9 5 1 216 
2 7 9 0 4 9 1 217 
6 6 10 0 8 10 1 218 
3 6 6 0 9 10 3 223 220 219 
9 8 10 0 8 10 1 221 
8 10 10 0 5 10 2 225 224 
7 10 10 0 5 8 1 222 
9 10 4 0 6 7 1 224 
10 7 10 0 6 9 1 224 
9 8 10 0 8 10 2 230 226 
6 7 9 0 5 8 2 230 226 
1 6 10 0 10 9 1 227 
6 7 10 0 9 4 1 228 
3 9 10 0 6 10 2 233 229 
6 10 8 0 10 6 1 231 
7 6 10 0 10 7 1 231 
9 7 6 0 7 8 1 232 
7 7 5 0 7 6 2 237 234 
3 7 10 0 9 10 2 235 234 
9 2 9 0 10 8 1 236 
6 10 8 0 7 3 1 236 
8 3 6 0 8 7 1 238 
7 10 6 0 10 5 1 238 
10 5 9 0 10 9 1 239 
10 6 7 0 6 7 1 240 
5 10 9 0 8 9 1 241 
6 10 4 0 3 7 1 242 
0 0 0 0 0 0 1 543 
0 0 0 0 0 0 2 244 252 
9 3 3 0 0 4 1 245 
8 3 5 0 0 9 2 248 246 
8 8 10 0 0 7 2 247 405 
9 6 9 0 0 8 1 249 
9 7 10 0 0 9 1 249 
4 5 7 0 0 4 2 256 250 
7 9 4 0 0 7 1 251 
10 10 9 0 0 6 2 266 253 
4 6 9 0 0 6 2 256 255 
3 8 8 0 0 10 1 254 
4 9 9 0 0 10 1 255 
2 10 9 0 0 5 3 270 263 258 
9 10 5 0 0 9 1 257 
1 10 8 0 0 10 2 270 259 
7 5 9 0 0 6 1 259 
8 6 9 0 0 10 2 273 260 
8 10 7 0 0 8 1 261 
7 10 9 0 0 6 1 262 
6 7 10 0 0 7 1 264 
3 8 10 0 0 6 1 264 
2 10 4 0 0 6 1 265 
2 6 5 0 0 6 1 267 
5 8 2 0 0 10 2 270 269 
3 9 8 0 0 7 1 268 
4 2 6 0 0 9 1 269 
1 7 7 0 0 10 1 271 
3 10 8 0 0 9 1 271 
5 10 10 0 0 9 1 272 
2 7 9 0 0 7 1 274 
6 6 7 0 0 5 1 274 
0 0 0 0 0 0 1 543 
0 0 0 0 0 0 4 276 303 304 305 
4 0 0 3 4 7 2 302 277 
10 0 0 8 2 5 1 278 
9 0 0 9 6 7 1 279 
4 0 0 9 9 5 3 301 300 280 
6 0 0 2 5 7 2 299 281 
9 0 0 8 8 10 1 282 
10 0 0 9 10 7 1 283 
1 0 0 6 5 7 1 284 
8 0 0 8 7 10 1 285 
5 0 0 7 8 7 1 286 
8 0 0 6 9 6 1 287 
8 0 0 5 7 9 2 298 288 
4 0 0 5 8 6 1 289 
10 0 0 10 7 10 1 290 
6 0 0 10 8 8 1 291 
1 0 0 2 6 10 1 292 
1 0 0 10 10 8 1 293 
6 0 0 10 10 4 1 294 
1 0 0 9 10 7 1 295 
6 0 0 4 10 9 1 296 
8 0 0 10 8 3 1 297 
9 0 0 7 8 9 1 306 
2 0 0 5 9 8 1 306 
8 0 0 10 9 9 1 306 
7 0 0 10 5 8 2 306 537 
4 0 0 10 5 7 1 306 
2 0 0 8 8 10 1 306 
1 0 0 10 9 4 1 306 
8 0 0 9 6 10 1 306 
6 0 0 6 9 8 1 306 
0 0 0 0 0 0 1 543 
0 0 0 0 0 0 2 308 337 
3 2 5 0 8 0 1 309 
5 5 6 0 6 0 1 310 
7 7 7 0 4 0 1 311 
9 9 7 0 4 0 1 312 
1 7 9 0 6 0 2 336 313 
3 3 8 0 3 0 1 314 
1 10 10 0 10 0 1 315 
5 5 8 0 6 0 5 335 334 330 321 316 
4 9 7 0 8 0 1 317 
3 6 6 0 8 0 2 323 318 
8 9 7 0 5 0 1 319 
10 8 10 0 9 0 1 320 
10 4 9 0 7 0 1 322 
6 10 4 0 6 0 1 323 
4 10 8 0 9 0 1 324 
6 6 7 0 10 0 1 324 
4 8 5 0 9 0 2 333 325 
9 6 6 0 10 0 1 326 
10 5 7 0 10 0 1 327 
10 8 9 0 10 0 1 328 
1 9 7 0 6 0 1 329 
3 10 6 0 9 0 1 331 
3 10 7 0 8 0 1 331 
2 8 10 0 8 0 1 332 
9 8 8 0 10 0 1 338 
7 7 9 0 5 0 1 338 
7 10 5 0 7 0 1 338 
3 6 8 0 8 0 1 338 
10 10 10 0 7 0 1 338 
3 10 10 0 9 0 1 338 
0 0 0 0 0 0 1 543 
0 0 0 0 0 0 2 340 343 
8 0 2 0 0 0 2 345 341 
9 0 10 0 0 0 1 342 
7 0 8 0 0 0 2 349 344 
1 0 8 0 0 0 2 349 345 
7 0 10 0 0 0 1 346 
4 0 7 0 0 0 1 346 
6 0 10 0 0 0 1 347 
4 0 10 0 0 0 1 348 
3 0 3 0 0 0 1 350 
10 0 7 0 0 0 1 350 
0 0 0 0 0 0 5 383 395 417 439 461 
0 0 0 0 0 0 2 352 381 
3 0 3 0 2 1 1 353 
1 0 6 0 8 8 1 354 
9 0 7 0 6 7 1 355 
1 0 9 0 10 8 1 356 
9 0 6 0 9 10 2 380 357 
2 0 9 0 7 9 1 358 
1 0 8 0 6 7 2 379 359 
9 0 6 0 10 5 4 378 377 365 360 
4 0 7 0 6 9 1 361 
2 0 9 0 6 3 2 368 362 
10 0 10 0 10 10 1 363 
1 0 9 0 10 8 1 364 
2 0 7 0 4 9 2 376 366 
2 0 8 0 10 5 2 376 369 
6 0 8 0 8 5 1 367 
1 0 9 0 8 7 1 369 
9 0 10 0 10 10 1 369 
4 0 10 0 5 10 1 370 
10 0 3 0 6 10 1 371 
2 0 5 0 10 6 1 372 
9 0 9 0 10 9 1 373 
6 0 6 0 10 7 1 374 
10 0 6 0 4 9 1 375 
9 0 9 0 7 9 1 382 
5 0 7 0 8 6 1 382 
9 0 6 0 8 4 1 382 
8 0 10 0 6 8 1 382 
2 0 7 0 4 6 1 382 
4 0 10 0 7 10 1 382 
1 0 6 0 10 10 1 382 
0 0 0 0 0 0 1 543 
0 0 0 0 0 0 3 384 387 389 
2 0 0 0 2 0 1 385 
8 0 0 0 5 0 2 393 386 
3 0 0 0 6 0 1 388 
1 0 0 0 10 0 2 393 391 
1 0 0 0 10 0 1 390 
10 0 0 0 7 0 1 390 
5 0 0 0 8 0 1 391 
1 0 0 0 7 0 1 392 
1 0 0 0 10 0 1 394 
9 0 0 0 10 0 1 394 
0 0 0 0 0 0 5 483 495 507 519 531 
0 0 0 0 0 0 3 396 401 403 
5 6 5 0 0 0 1 397 
4 6 10 0 0 0 1 398 
9 6 7 0 0 0 1 399 
6 4 9 0 0 0 1 400 
6 7 10 0 0 0 2 409 402 
7 6 9 0 0 0 2 407 405 
10 10 3 0 0 0 1 404 
4 7 8 0 0 0 1 404 
8 10 4 0 0 0 1 405 
10 4 6 0 0 0 2 415 406 
2 8 10 0 0 0 1 408 
5 9 6 0 0 0 1 408 
1 7 7 0 0 0 1 410 
10 8 7 0 0 0 1 410 
7 7 6 0 0 0 1 411 
1 10 8 0 0 0 1 412 
5 10 8 0 0 0 1 413 
2 6 10 0 0 0 1 414 
7 10 10 0 0 0 1 416 
1 9 7 0 0 0 1 416 
0 0 0 0 0 0 1 543 
0 0 0 0 0 0 1 418 
3 0 0 2 0 4 2 429 419 
5 0 0 7 0 6 2 431 420 
8 0 0 7 0 9 1 421 
4 0 0 10 0 9 1 422 
7 0 0 10 0 6 2 434 423 
5 0 0 6 0 9 1 424 
5 0 0 10 0 4 1 425 
7 0 0 8 0 8 2 437 426 
4 0 0 9 0 5 1 427 
10 0 0 7 0 8 2 436 428 
2 0 0 7 0 6 1 430 
9 0 0 8 0 5 2 436 433 
9 0 0 4 0 8 1 432 
8 0 0 4 0 10 2 437 435 
8 0 0 7 0 9 1 433 
7 0 0 10 0 10 1 435 
10 0 0 4 0 6 1 437 
3 0 0 10 0 10 1 438 
10 0 0 10 0 9 1 438 
7 0 0 10 0 9 1 438 
0 0 0 0 0 0 1 543 
0 0 0 0 0 0 2 440 443 
10 5 0 5 0 0 1 441 
5 10 0 7 0 0 2 449 442 
7 8 0 8 0 0 3 456 447 444 
5 9 0 2 0 0 3 456 447 444 
10 10 0 10 0 0 1 445 
8 2 0 5 0 0 1 446 
10 8 0 10 0 0 1 448 
4 6 0 10 0 0 1 448 
7 5 0 7 0 0 1 450 
4 10 0 9 0 0 1 450 
2 8 0 10 0 0 1 451 
3 7 0 10 0 0 1 452 
6 10 0 6 0 0 1 453 
4 6 0 4 0 0 2 459 454 
6 9 0 7 0 0 1 455 
9 6 0 5 0 0 1 457 
3 7 0 10 0 0 1 457 
4 6 0 7 0 0 1 458 
8 8 0 8 0 0 1 460 
9 10 0 10 0 0 1 460 
0 0 0 0 0 0 1 543 
0 0 0 0 0 0 3 462 474 477 
6 2 0 0 0 1 3 481 480 463 
3 7 0 0 0 10 1 464 
4 8 0 0 0 8 1 465 
2 9 0 0 0 4 1 466 
5 9 0 0 0 8 1 467 
9 10 0 0 0 8 1 468 
10 9 0 0 0 10 2 479 469 
9 4 0 0 0 6 1 470 
4 10 0 0 0 7 1 471 
6 5 0 0 0 10 1 472 
3 10 0 0 0 8 1 473 
10 9 0 0 0 5 1 475 
4 6 0 0 0 6 2 480 478 
5 9 0 0 0 8 1 476 
1 10 0 0 0 9 1 478 
4 3 0 0 0 9 1 478 
5 6 0 0 0 10 1 482 
5 10 0 0 0 10 1 482 
7 7 0 0 0 10 1 482 
8 7 0 0 0 3 1 482 
0 0 0 0 0 0 1 543 
0 0 0 0 0 0 2 484 490 
9 0 0 0 0 5 2 493 485 
1 0 0 0 0 7 2 492 486 
8 0 0 0 0 8 1 487 
9 0 0 0 0 10 1 488 
2 0 0 0 0 5 1 489 
5 0 0 0 0 7 1 491 
10 0 0 0 0 10 1 492 
5 0 0 0 0 6 1 494 
3 0 0 0 0 9 1 494 
2 0 0 0 0 8 1 494 
0 0 0 0 0 0 1 543 
0 0 0 0 0 0 2 496 502 
3 3 0 0 0 0 1 497 
5 9 0 0 0 0 2 505 498 
6 10 0 0 0 0 1 499 
10 6 0 0 0 0 2 504 500 
6 9 0 0 0 0 1 501 
10 6 0 0 0 0 1 503 
4 6 0 0 0 0 1 503 
6 8 0 0 0 0 1 506 
4 9 0 0 0 0 1 506 
10 9 0 0 0 0 1 506 
0 0 0 0 0 0 1 543 
0 0 0 0 0 0 1 508 
2 0 0 5 0 0 1 509 
3 0 0 5 0 0 1 510 
1 0 0 10 0 0 2 513 511 
4 0 0 9 0 0 2 515 512 
8 0 0 7 0 0 2 517 514 
6 0 0 10 0 0 1 514 
7 0 0 8 0 0 1 516 
8 0 0 7 0 0 1 517 
7 0 0 8 0 0 1 518 
4 0 0 6 0 0 1 518 
0 0 0 0 0 0 1 543 
0 0 0 0 0 0 2 520 521 
1 0 0 0 6 0 2 524 522 
4 0 0 0 4 0 2 528 524 
5 0 0 0 5 0 1 523 
6 0 0 0 8 0 2 528 525 
10 0 0 0 5 0 1 525 
9 0 0 0 9 0 1 526 
4 0 0 0 9 0 1 527 
2 0 0 0 10 0 1 529 
9 0 0 0 10 0 1 529 
9 0 0 0 9 0 1 530 
0 0 0 0 0 0 1 543 
0 0 0 0 0 0 2 532 535 
9 0 0 0 3 0 2 541 533 
10 0 0 0 8 0 1 534 
5 0 0 0 6 0 2 538 536 
4 0 0 0 10 0 2 541 536 
1 0 0 0 9 0 1 537 
6 0 0 0 9 0 1 539 
8 0 0 0 9 0 1 539 
1 0 0 0 6 0 1 540 
9 0 0 0 8 0 1 542 
2 0 0 0 7 0 1 542 
0 0 0 0 0 0 1 543 
0 0 0 0 0 0 0 
